p edge 100 198
1 100
1 2
2 3
2 55
3 4
3 66
4 61
4 5
5 6
5 25
6 10
6 7
7 42
7 8
8 9
8 38
9 35
9 10
10 11
10 97
11 12
12 98
12 13
13 37
13 14
14 15
14 30
15 17
15 16
16 28
16 17
17 18
17 75
18 29
18 19
19 28
19 20
20 21
20 95
21 56
21 22
22 23
22 48
23 36
23 24
24 1
24 25
25 26
25 12
26 85
26 27
27 28
27 48
28 29
28 69
29 95
29 30
30 31
30 1
31 52
31 32
32 39
32 33
33 34
33 6
34 88
34 35
35 60
35 36
36 37
36 40
37 38
37 89
38 39
38 60
39 40
39 41
40 41
40 46
41 42
41 2
42 61
42 43
43 2
43 44
44 45
44 49
45 46
45 19
46 47
46 91
47 48
47 65
48 41
48 49
49 50
49 12
50 51
50 5
51 99
51 52
52 53
52 71
53 36
53 54
54 80
54 55
55 56
55 63
56 57
56 75
57 58
57 62
58 30
58 59
59 60
59 37
60 61
61 96
61 62
62 63
62 19
63 29
63 64
64 65
64 41
65 45
65 66
66 73
66 67
67 33
67 68
68 69
68 21
69 88
69 70
70 55
70 71
71 72
71 48
72 91
72 73
73 74
73 27
74 61
74 75
75 7
75 76
76 77
76 40
77 78
77 48
78 79
78 14
79 80
79 38
80 3
80 81
81 82
81 7
82 83
82 43
83 84
83 38
84 85
84 30
85 86
85 47
86 87
86 42
87 57
87 88
88 89
88 22
89 63
89 90
90 91
90 11
91 92
91 13
92 4
92 93
93 58
93 94
94 95
94 67
95 76
95 96
96 6
96 97
97 98
97 76
98 44
98 99
99 58
99 100
100 1
100 66
